TCS_Benchmarks/redos_fix/regexlib2_output_distinct_2903_2902_3_0.txt
((rp|si)a|ero)+((rp|si)a|[cdefgilmnoqrstuwxz])+
((rp|si)a|[cdefgilmnoqrstuwxz])+
e.*